job_count = 26 ;
duration = [|21, 16, 14, 5|6, 18, 14, 7|26, 14, 13, 9|39, 29, 19, 6|37, 17, 16, 1|22, 7, 9, 3|10, 18, 2, 8|35, 4, 15, 3|34, 10, 2, 6|12, 12, 6, 6|17, 7, 5, 6|10, 19, 18, 1|7, 28, 12, 9|20, 16, 17, 5|6, 8, 6, 8|34, 19, 6, 2|19, 29, 16, 2|18, 29, 10, 6|13, 19, 5, 1|6, 7, 14, 4|25, 10, 5, 8|24, 29, 3, 3|35, 24, 16, 4|27, 17, 8, 3|18, 13, 2, 6|18, 22, 12, 4|] ;
machine_count = 4 ;
cost = [|13, 20, 45, 40|16, 28, 45, 48|10, 20, 48, 42|11, 36, 49, 77|10, 20, 51, 75|16, 25, 52, 40|14, 38, 56, 48|14, 29, 35, 45|10, 32, 48, 58|13, 21, 50, 69|12, 36, 30, 67|19, 36, 49, 74|11, 36, 42, 70|13, 22, 42, 46|19, 36, 43, 50|12, 28, 47, 60|18, 38, 53, 42|17, 22, 43, 78|15, 30, 53, 50|14, 33, 39, 66|19, 39, 32, 72|13, 30, 57, 59|12, 32, 30, 53|11, 25, 38, 44|18, 28, 34, 40|17, 22, 46, 66|] ;
deadline = [54, 54, 54, 54, 54, 54, 54, 54, 54, 54, 54, 54, 54, 54, 54, 54, 54, 54, 54, 54, 54, 54, 54, 54, 54, 54] ;
release = [0, 0, 0, 0, 0, 0, 0, 0, 0, 0, 0, 0, 0, 0, 0, 0, 0, 0, 0, 0, 0, 0, 0, 0, 0, 0] ;
resource = [|2, 2, 2, 2|6, 6, 6, 6|9, 9, 9, 9|4, 4, 4, 4|3, 3, 3, 3|9, 9, 9, 9|3, 3, 3, 3|5, 5, 5, 5|3, 3, 3, 3|7, 7, 7, 7|4, 4, 4, 4|3, 3, 3, 3|3, 3, 3, 3|2, 2, 2, 2|2, 2, 2, 2|7, 7, 7, 7|5, 5, 5, 5|6, 6, 6, 6|6, 6, 6, 6|3, 3, 3, 3|7, 7, 7, 7|2, 2, 2, 2|9, 9, 9, 9|2, 2, 2, 2|5, 5, 5, 5|4, 4, 4, 4|] ;
capacities = [10, 10, 10, 10] ;
